%SETS
JOBS     = 1..20;
MACHINES = 1..10;
SPEED    = 5;

time        = array3d(JOBS,MACHINES,1..SPEED,[14, 4, 3, 2, 2, 29, 10, 7, 6, 5, 5, 2, 1, 1, 1, 54, 18, 13, 11, 9, 1, 1, 1, 1, 1, 28, 9, 7, 5, 5, 13, 4, 3, 2, 2, 21, 7, 5, 4, 3, 3, 1, 1, 1, 1, 5, 1, 1, 1, 1, 41, 14, 10, 8, 7, 89, 30, 21, 18, 16, 9, 3, 2, 1, 1, 30, 10, 7, 6, 5, 54, 18, 13, 11, 9, 58, 20, 14, 11, 10, 2, 1, 1, 1, 1, 1, 1, 1, 1, 1, 4, 1, 1, 1, 1, 54, 18, 13, 11, 9, 2, 1, 1, 1, 1, 14, 4, 3, 2, 2, 81, 28, 20, 16, 14, 19, 6, 4, 4, 3, 30, 10, 7, 6, 5, 9, 3, 2, 1, 1, 30, 10, 7, 6, 5, 46, 16, 11, 9, 8, 1, 1, 1, 1, 1, 35, 12, 8, 7, 6, 116, 40, 28, 23, 20, 35, 12, 8, 7, 6, 8, 2, 2, 1, 1, 40, 13, 9, 8, 7, 2, 1, 1, 1, 1, 15, 5, 3, 3, 2, 61, 21, 15, 12, 11, 8, 3, 2, 1, 1, 8, 3, 2, 1, 1, 3, 1, 1, 1, 1, 1, 1, 1, 1, 1, 29, 10, 7, 5, 5, 6, 2, 1, 1, 1, 7, 2, 1, 1, 1, 17, 6, 4, 3, 3, 1, 1, 1, 1, 1, 22, 7, 5, 4, 3, 4, 1, 1, 1, 1, 23, 7, 5, 4, 4, 31, 10, 7, 6, 5, 2, 1, 1, 1, 1, 13, 4, 3, 2, 2, 30, 10, 7, 6, 5, 13, 4, 3, 2, 2, 1, 1, 1, 1, 1, 19, 6, 4, 4, 3, 28, 9, 6, 5, 5, 18, 6, 4, 3, 3, 74, 25, 18, 15, 13, 22, 7, 5, 4, 4, 60, 20, 14, 12, 10, 3, 1, 1, 1, 1, 3, 1, 1, 1, 1, 42, 14, 10, 8, 7, 13, 4, 3, 2, 2, 4, 1, 1, 1, 1, 67, 23, 16, 13, 12, 11, 3, 2, 2, 1, 35, 12, 8, 7, 6, 33, 11, 8, 6, 6, 55, 19, 13, 11, 10, 25, 8, 6, 5, 4, 35, 12, 8, 7, 6, 11, 3, 2, 2, 1, 8, 2, 1, 1, 1, 58, 20, 14, 11, 10, 14, 4, 3, 2, 2, 86, 29, 21, 17, 15, 28, 9, 6, 5, 5, 25, 8, 6, 5, 4, 3, 1, 1, 1, 1, 77, 26, 18, 15, 13, 15, 5, 3, 3, 2, 22, 7, 5, 4, 4, 13, 4, 3, 2, 2, 7, 2, 1, 1, 1, 60, 20, 14, 12, 10, 22, 7, 5, 4, 3, 1, 1, 1, 1, 1, 24, 8, 6, 5, 4, 10, 3, 2, 2, 1, 19, 6, 4, 3, 3, 56, 19, 13, 11, 10, 11, 3, 2, 2, 2, 61, 21, 15, 12, 11, 25, 8, 6, 5, 4, 1, 1, 1, 1, 1, 68, 23, 16, 13, 12, 30, 10, 7, 6, 5, 153, 52, 37, 31, 27, 4, 1, 1, 1, 1, 3, 1, 1, 1, 1, 69, 24, 17, 14, 12, 30, 10, 7, 6, 5, 1, 1, 1, 1, 1, 36, 12, 8, 7, 6, 36, 12, 8, 7, 6, 66, 22, 16, 13, 11, 32, 11, 7, 6, 5, 3, 1, 1, 1, 1, 1, 1, 1, 1, 1, 1, 1, 1, 1, 1, 1, 1, 1, 1, 1, 7, 2, 1, 1, 1, 50, 17, 12, 10, 9, 20, 6, 4, 4, 3, 20, 7, 5, 4, 3, 47, 16, 11, 9, 8, 3, 1, 1, 1, 1, 8, 2, 2, 1, 1, 22, 7, 5, 4, 4, 90, 31, 22, 18, 16, 21, 7, 5, 4, 3, 1, 1, 1, 1, 1, 41, 14, 10, 8, 7, 6, 2, 1, 1, 1, 42, 14, 10, 8, 7, 12, 4, 3, 2, 2, 51, 17, 12, 10, 9, 35, 12, 8, 7, 6, 21, 7, 5, 4, 3, 3, 1, 1, 1, 1, 1, 1, 1, 1, 1, 3, 1, 1, 1, 1, 1, 1, 1, 1, 1, 2, 1, 1, 1, 1, 6, 2, 1, 1, 1, 32, 11, 7, 6, 5, 21, 7, 5, 4, 3, 1, 1, 1, 1, 1, 1, 1, 1, 1, 1, 88, 30, 21, 18, 15, 21, 7, 5, 4, 3, 5, 2, 1, 1, 1, 7, 2, 1, 1, 1, 35, 12, 8, 7, 6, 5, 1, 1, 1, 1, 22, 7, 5, 4, 4, 90, 31, 22, 18, 16, 48, 16, 11, 9, 8, 7, 2, 1, 1, 1, 17, 6, 4, 3, 3, 25, 8, 6, 5, 4, 45, 15, 11, 9, 8, 4, 1, 1, 1, 1, 1, 1, 1, 1, 1, 1, 1, 1, 1, 1, 17, 5, 4, 3, 3, 24, 8, 5, 4, 4, 21, 7, 5, 4, 3, 9, 3, 2, 2, 1, 115, 39, 28, 23, 20, 22, 7, 5, 4, 4, 12, 4, 3, 2, 2, 20, 7, 5, 4, 3, 35, 12, 8, 7, 6, 28, 9, 7, 5, 5, 7, 2, 1, 1, 1, 1, 1, 1, 1, 1, 11, 4, 2, 2, 2, 25, 8, 6, 5, 4, 6, 2, 1, 1, 1, 36, 12, 8, 7, 6, 1, 1, 1, 1, 1, 7, 2, 1, 1, 1, 42, 14, 10, 8, 7, 5, 1, 1, 1, 1, 26, 9, 6, 5, 4, 19, 6, 4, 3, 3, 66, 23, 16, 13, 12, 7, 2, 1, 1, 1, 1, 1, 1, 1, 1, 34, 11, 8, 6, 6, 38, 13, 9, 7, 6, 61, 21, 15, 12, 11, 69, 24, 17, 14, 12, 1, 1, 1, 1, 1, 6, 2, 1, 1, 1, 24, 8, 6, 5, 4, 77, 26, 18, 15, 13, 77, 26, 19, 15, 13, 21, 7, 5, 4, 3, 63, 22, 15, 13, 11, 26, 9, 6, 5, 4, 12, 4, 3, 2, 2, 17, 5, 4, 3, 3, 23, 8, 5, 4, 4, 20, 7, 5, 4, 3, 67, 23, 16, 13, 12, 64, 22, 15, 13, 11]);
energy      = array3d(JOBS,MACHINES,1..SPEED,[86, 96, 97, 98, 98, 74, 90, 93, 94, 95, 95, 98, 99, 99, 99, 58, 83, 87, 89, 91, 99, 99, 99, 99, 99, 75, 91, 93, 95, 95, 87, 96, 97, 98, 98, 81, 93, 95, 96, 97, 97, 99, 99, 99, 99, 95, 99, 99, 99, 99, 66, 86, 90, 92, 93, 41, 74, 81, 83, 85, 91, 97, 98, 99, 99, 74, 90, 93, 94, 95, 58, 83, 87, 89, 91, 55, 81, 86, 89, 90, 98, 99, 99, 99, 99, 99, 99, 99, 99, 99, 96, 99, 99, 99, 99, 58, 83, 87, 89, 91, 98, 99, 99, 99, 99, 86, 96, 97, 98, 98, 44, 75, 81, 85, 86, 82, 94, 96, 96, 97, 74, 90, 93, 94, 95, 91, 97, 98, 99, 99, 74, 90, 93, 94, 95, 63, 85, 89, 91, 92, 99, 99, 99, 99, 99, 70, 88, 92, 93, 94, 31, 67, 75, 79, 81, 70, 88, 92, 93, 94, 92, 98, 98, 99, 99, 67, 87, 91, 92, 93, 98, 99, 99, 99, 99, 86, 95, 97, 97, 98, 54, 81, 86, 88, 89, 92, 97, 98, 99, 99, 92, 97, 98, 99, 99, 97, 99, 99, 99, 99, 99, 99, 99, 99, 99, 74, 90, 93, 95, 95, 94, 98, 99, 99, 99, 93, 98, 99, 99, 99, 84, 94, 96, 97, 97, 99, 99, 99, 99, 99, 80, 93, 95, 96, 97, 96, 99, 99, 99, 99, 79, 93, 95, 96, 96, 73, 90, 93, 94, 95, 98, 99, 99, 99, 99, 87, 96, 97, 98, 98, 74, 90, 93, 94, 95, 87, 96, 97, 98, 98, 99, 99, 99, 99, 99, 82, 94, 96, 96, 97, 75, 91, 94, 95, 95, 83, 94, 96, 97, 97, 47, 77, 83, 86, 87, 80, 93, 95, 96, 96, 54, 81, 86, 88, 90, 97, 99, 99, 99, 99, 97, 99, 99, 99, 99, 65, 86, 90, 92, 93, 87, 96, 97, 98, 98, 96, 99, 99, 99, 99, 51, 79, 85, 87, 88, 89, 97, 98, 98, 99, 70, 88, 92, 93, 94, 71, 89, 92, 94, 94, 57, 82, 87, 89, 90, 77, 92, 94, 95, 96, 70, 88, 92, 93, 94, 89, 97, 98, 98, 99, 92, 98, 99, 99, 99, 55, 81, 86, 89, 90, 86, 96, 97, 98, 98, 42, 74, 81, 84, 86, 75, 91, 94, 95, 95, 77, 92, 94, 95, 96, 97, 99, 99, 99, 99, 46, 77, 83, 86, 87, 86, 95, 97, 97, 98, 80, 93, 95, 96, 96, 87, 96, 97, 98, 98, 93, 98, 99, 99, 99, 54, 81, 86, 88, 90, 80, 93, 95, 96, 97, 99, 99, 99, 99, 99, 78, 92, 94, 95, 96, 90, 97, 98, 98, 99, 82, 94, 96, 97, 97, 57, 82, 87, 89, 90, 89, 97, 98, 98, 98, 54, 81, 86, 88, 89, 77, 92, 94, 95, 96, 99, 99, 99, 99, 99, 50, 79, 85, 87, 88, 74, 90, 93, 94, 95, 21, 59, 69, 73, 76, 96, 99, 99, 99, 99, 97, 99, 99, 99, 99, 50, 78, 84, 86, 88, 74, 90, 93, 94, 95, 99, 99, 99, 99, 99, 69, 88, 92, 93, 94, 69, 88, 92, 93, 94, 51, 80, 85, 87, 89, 72, 89, 93, 94, 95, 97, 99, 99, 99, 99, 99, 99, 99, 99, 99, 99, 99, 99, 99, 99, 99, 99, 99, 99, 99, 93, 98, 99, 99, 99, 60, 84, 88, 90, 91, 81, 94, 96, 96, 97, 81, 93, 95, 96, 97, 62, 85, 89, 91, 92, 97, 99, 99, 99, 99, 92, 98, 98, 99, 99, 80, 93, 95, 96, 96, 40, 73, 80, 83, 85, 81, 93, 95, 96, 97, 99, 99, 99, 99, 99, 66, 86, 90, 92, 93, 94, 98, 99, 99, 99, 65, 86, 90, 92, 93, 88, 96, 97, 98, 98, 60, 84, 88, 90, 91, 70, 88, 92, 93, 94, 81, 93, 95, 96, 97, 97, 99, 99, 99, 99, 99, 99, 99, 99, 99, 97, 99, 99, 99, 99, 99, 99, 99, 99, 99, 98, 99, 99, 99, 99, 94, 98, 99, 99, 99, 72, 89, 93, 94, 95, 81, 93, 95, 96, 97, 99, 99, 99, 99, 99, 99, 99, 99, 99, 99, 41, 74, 81, 83, 86, 81, 93, 95, 96, 97, 95, 98, 99, 99, 99, 93, 98, 99, 99, 99, 70, 88, 92, 93, 94, 95, 99, 99, 99, 99, 80, 93, 95, 96, 96, 40, 73, 80, 83, 85, 61, 85, 89, 91, 92, 93, 98, 99, 99, 99, 84, 94, 96, 97, 97, 77, 92, 94, 95, 96, 63, 86, 89, 91, 92, 96, 99, 99, 99, 99, 99, 99, 99, 99, 99, 99, 99, 99, 99, 99, 84, 95, 96, 97, 97, 78, 92, 95, 96, 96, 81, 93, 95, 96, 97, 91, 97, 98, 98, 99, 31, 67, 75, 79, 81, 80, 93, 95, 96, 96, 88, 96, 97, 98, 98, 81, 93, 95, 96, 97, 70, 88, 92, 93, 94, 75, 91, 93, 95, 95, 93, 98, 99, 99, 99, 99, 99, 99, 99, 99, 89, 96, 98, 98, 98, 77, 92, 94, 95, 96, 94, 98, 99, 99, 99, 69, 88, 92, 93, 94, 99, 99, 99, 99, 99, 93, 98, 99, 99, 99, 65, 86, 90, 92, 93, 95, 99, 99, 99, 99, 77, 91, 94, 95, 96, 82, 94, 96, 97, 97, 51, 79, 85, 87, 88, 93, 98, 99, 99, 99, 99, 99, 99, 99, 99, 71, 89, 92, 94, 94, 68, 87, 91, 93, 94, 54, 81, 86, 88, 89, 50, 78, 84, 86, 88, 99, 99, 99, 99, 99, 94, 98, 99, 99, 99, 78, 92, 94, 95, 96, 46, 77, 83, 86, 87, 46, 77, 82, 86, 87, 81, 93, 95, 96, 97, 53, 80, 86, 87, 89, 77, 91, 94, 95, 96, 88, 96, 97, 98, 98, 84, 95, 96, 97, 97, 79, 92, 95, 96, 96, 81, 93, 95, 96, 97, 51, 79, 85, 87, 88, 52, 80, 86, 87, 89]);
precedence  = array2d(JOBS,MACHINES,[7, 0, 5, 3, 9, 2, 6, 8, 1, 4, 3, 0, 2, 1, 4, 7, 6, 5, 8, 9, 3, 5, 8, 7, 0, 6, 4, 2, 9, 1, 6, 4, 7, 0, 5, 8, 2, 1, 9, 3, 1, 0, 7, 6, 8, 4, 9, 3, 5, 2, 8, 5, 9, 0, 6, 3, 2, 7, 1, 4, 8, 0, 4, 9, 7, 1, 3, 2, 6, 5, 3, 4, 0, 9, 1, 6, 7, 2, 8, 5, 1, 5, 0, 3, 2, 9, 7, 8, 4, 6, 8, 2, 4, 6, 9, 5, 7, 1, 3, 0, 7, 2, 0, 8, 3, 5, 9, 1, 4, 6, 7, 3, 2, 5, 6, 4, 9, 8, 1, 0, 9, 8, 2, 7, 0, 4, 5, 1, 3, 6, 4, 3, 0, 1, 8, 5, 2, 6, 7, 9, 0, 7, 3, 1, 4, 5, 2, 9, 6, 8, 9, 8, 1, 3, 2, 7, 4, 5, 0, 6, 8, 6, 1, 9, 3, 2, 5, 0, 7, 4, 7, 0, 4, 9, 8, 3, 5, 6, 2, 1, 4, 0, 6, 3, 2, 5, 9, 8, 1, 7, 6, 9, 3, 2, 7, 4, 0, 1, 8, 5]);
releaseDate = array2d(JOBS,MACHINES,[134, 80, 129, 96, 146, 89, 131, 137, 88, 128, 132, 100, 129, 121, 154, 170, 169, 167, 209, 210, 114, 123, 132, 128, 70, 126, 115, 91, 152, 77, 129, 111, 161, 70, 128, 163, 83, 81, 168, 109, 79, 70, 98, 95, 99, 89, 106, 88, 90, 80, 83, 75, 84, 20, 78, 56, 49, 79, 23, 64, 113, 60, 87, 128, 108, 61, 64, 62, 100, 88, 34, 47, 0, 95, 8, 66, 83, 9, 87, 56, 53, 69, 50, 63, 54, 161, 115, 154, 68, 107, 147, 98, 115, 144, 149, 135, 146, 82, 102, 20, 71, 50, 10, 72, 51, 59, 83, 33, 52, 70, 122, 104, 103, 109, 110, 105, 137, 123, 102, 100, 187, 160, 100, 157, 80, 124, 125, 96, 107, 137, 55, 54, 50, 52, 77, 62, 53, 63, 72, 79, 90, 147, 93, 91, 98, 103, 92, 198, 114, 175, 85, 81, 49, 58, 57, 80, 69, 71, 40, 75, 174, 135, 91, 178, 114, 97, 122, 90, 173, 119, 73, 10, 45, 81, 79, 35, 65, 66, 28, 11, 60, 20, 81, 49, 34, 61, 121, 120, 21, 94, 72, 117, 18, 12, 93, 35, 0, 5, 97, 46]);
dueDate     = array2d(JOBS,MACHINES,[137, 88, 131, 128, 147, 96, 134, 146, 89, 129, 154, 121, 132, 129, 167, 209, 170, 169, 210, 234, 115, 126, 152, 132, 77, 128, 123, 114, 153, 91, 161, 128, 163, 81, 129, 168, 109, 83, 170, 111, 80, 79, 99, 98, 106, 90, 116, 89, 95, 88, 84, 78, 95, 23, 79, 64, 56, 83, 49, 75, 128, 61, 88, 141, 113, 62, 87, 64, 108, 100, 47, 56, 8, 100, 9, 83, 87, 34, 95, 66, 54, 107, 53, 68, 63, 164, 154, 161, 69, 115, 149, 102, 135, 146, 198, 144, 147, 98, 115, 82, 72, 51, 33, 83, 52, 70, 93, 50, 59, 71, 123, 105, 104, 110, 122, 109, 145, 137, 103, 102, 196, 187, 107, 160, 96, 125, 137, 100, 124, 157, 62, 55, 52, 53, 79, 63, 54, 72, 77, 81, 91, 175, 98, 92, 103, 114, 93, 208, 147, 198, 86, 85, 57, 69, 58, 81, 71, 75, 49, 80, 178, 173, 97, 181, 119, 114, 135, 91, 174, 122, 79, 11, 65, 82, 81, 45, 66, 73, 35, 28, 61, 21, 94, 60, 49, 81, 122, 121, 34, 120, 93, 124, 35, 18, 97, 46, 5, 12, 117, 72]);